82
51
44
48
84
11
52
87
96
97
81
36
57
60
77
80
54
6
47
31
67
65
2
35
21
89
59
73
3
69
14
99
19
66
63
16
9
78
26
61
37
29
18
49
93
4
92
10
45
33
100
74
41
30
68
23
70
76
91
94
95
50
86
5
43
56
71
38
28
39
72
83
62
22
8
17
25
90
34
58
98
88
75
42
55
64
20
79
13
15
27
85
1
53
40
12
46
24
32
7
82
